238
206
115
276
215
236
393
149
193
159
218
205
341
153
228
116
429
283
280
177
216
612
153
211
169
134
244
173
134
160
288
244
304
145
218
187
181
325
209
178
253
272
232
423
246
228
521
331
237
251
190
244
363
338
225
252
205
153
246
159
189
565
98
448
230
307
377
232
210
259
482
329
108
117
153
178
249
252
413
206
375
180
168
380
216
187
264
199
188
213
192
101
237
186
169
133
188
323
139
286
